p tw 41 155
0 1
0 2
0 3
0 4
0 5
0 6
0 12
0 20
0 21
0 22
0 23
0 24
1 2
1 3
1 4
1 5
1 6
2 3
2 4
2 5
2 6
3 4
3 5
3 6
3 21
3 31
3 32
3 33
3 34
3 35
4 5
4 6
4 17
4 23
4 26
4 36
4 37
5 6
7 8
7 9
7 10
7 11
7 12
7 13
8 9
8 10
8 11
8 12
8 13
8 27
8 35
8 38
8 39
8 40
9 10
9 11
9 12
9 13
9 27
9 35
9 38
9 39
9 40
10 11
10 12
10 13
11 12
11 13
12 13
12 20
12 21
12 22
12 23
12 24
14 15
14 16
14 17
14 18
14 19
14 25
14 26
14 27
14 28
14 29
14 30
15 16
15 17
15 18
15 19
16 17
16 18
16 19
17 18
17 19
17 23
17 26
17 36
17 37
18 19
20 21
20 22
20 23
20 24
21 22
21 23
21 24
21 31
21 32
21 33
21 34
21 35
22 23
22 24
23 24
23 26
23 36
23 37
25 26
25 27
25 28
25 29
25 30
26 27
26 28
26 29
26 30
26 36
26 37
27 28
27 29
27 30
27 35
27 38
27 39
27 40
28 29
28 30
29 30
31 32
31 33
31 34
31 35
32 33
32 34
32 35
33 34
33 35
34 35
35 38
35 39
35 40
36 37
38 39
38 40
39 40
